c FILE: i160-231

c SOURCE: From steinlib

c DESCRIPTION: Steinlib instance with 160 nodes and 320 edges.

p edge 160 320
e 1 4
e 1 18
e 1 19
e 1 33
e 1 76
e 1 96
e 1 111
e 1 114
e 1 131
e 1 146
e 1 148
e 2 7
e 2 14
e 2 28
e 2 67
e 2 91
e 3 14
e 3 16
e 3 26
e 3 92
e 3 129
e 4 60
e 4 64
e 4 66
e 4 85
e 5 16
e 5 29
e 5 70
e 5 121
e 5 151
e 6 17
e 6 57
e 6 58
e 7 18
e 7 19
e 7 82
e 8 19
e 8 26
e 8 29
e 8 84
e 8 133
e 8 147
e 9 37
e 9 50
e 9 94
e 9 98
e 10 40
e 10 139
e 11 13
e 11 29
e 11 65
e 12 15
e 12 37
e 12 112
e 12 133
e 13 22
e 13 54
e 13 130
e 13 143
e 14 19
e 14 97
e 14 111
e 14 119
e 14 125
e 14 158
e 15 76
e 15 109
e 15 118
e 15 143
e 16 24
e 16 59
e 16 74
e 16 75
e 16 142
e 16 160
e 17 95
e 18 48
e 18 152
e 19 113
e 20 46
e 20 77
e 20 107
e 20 125
e 21 22
e 21 23
e 21 95
e 21 146
e 22 28
e 22 46
e 22 92
e 22 134
e 22 145
e 22 149
e 23 29
e 23 62
e 23 80
e 24 79
e 24 117
e 24 150
e 25 26
e 25 44
e 25 50
e 25 116
e 26 109
e 27 36
e 27 67
e 28 78
e 28 102
e 28 135
e 29 34
e 29 75
e 29 107
e 29 113
e 29 135
e 30 60
e 30 114
e 30 127
e 30 146
e 31 36
e 31 67
e 31 139
e 31 143
e 32 122
e 32 136
e 32 145
e 34 38
e 34 42
e 34 52
e 34 76
e 34 108
e 34 114
e 34 132
e 34 150
e 35 47
e 35 92
e 35 148
e 35 154
e 36 50
e 36 82
e 37 51
e 37 123
e 37 133
e 38 90
e 39 73
e 39 89
e 39 90
e 39 128
e 40 69
e 40 86
e 40 119
e 41 56
e 42 113
e 42 136
e 43 79
e 43 102
e 43 149
e 44 48
e 44 51
e 44 56
e 44 116
e 44 152
e 45 125
e 46 65
e 46 124
e 46 134
e 47 61
e 47 72
e 47 138
e 48 59
e 48 80
e 48 137
e 48 145
e 49 62
e 49 156
e 50 72
e 50 77
e 50 85
e 50 99
e 50 118
e 50 122
e 51 54
e 51 154
e 52 56
e 52 65
e 52 72
e 52 74
e 52 130
e 52 136
e 52 141
e 52 157
e 53 78
e 53 149
e 54 91
e 55 66
e 55 83
e 55 116
e 55 156
e 56 70
e 56 108
e 57 106
e 57 124
e 57 156
e 57 157
e 58 62
e 58 74
e 58 131
e 59 94
e 60 91
e 60 96
e 60 143
e 60 156
e 62 119
e 62 158
e 63 65
e 64 85
e 64 124
e 64 131
e 65 126
e 66 100
e 66 125
e 68 93
e 68 100
e 68 157
e 69 71
e 69 81
e 69 83
e 69 132
e 69 139
e 71 123
e 72 84
e 72 106
e 74 85
e 74 108
e 75 77
e 75 98
e 75 113
e 75 122
e 75 127
e 76 80
e 76 89
e 76 90
e 76 97
e 76 110
e 77 81
e 78 85
e 78 144
e 79 123
e 79 141
e 80 117
e 83 140
e 84 97
e 84 110
e 84 112
e 84 150
e 84 155
e 85 95
e 85 155
e 86 131
e 87 115
e 87 122
e 87 153
e 88 97
e 88 152
e 89 97
e 89 142
e 89 154
e 90 126
e 91 108
e 91 132
e 92 105
e 92 150
e 94 158
e 94 160
e 95 121
e 95 156
e 96 115
e 98 147
e 100 108
e 100 123
e 100 132
e 101 119
e 101 147
e 102 130
e 102 135
e 102 145
e 103 132
e 104 156
e 105 109
e 105 146
e 106 129
e 106 156
e 108 147
e 109 132
e 109 141
e 110 111
e 112 114
e 114 135
e 116 134
e 117 130
e 119 153
e 119 158
e 120 132
e 120 152
e 121 122
e 121 154
e 122 153
e 124 142
e 124 154
e 129 133
e 129 136
e 129 155
e 130 151
e 132 133
e 134 136
e 137 141
e 139 143
e 140 151
e 143 153
e 147 159
e 148 150
